single_objective/SL-DABL/OP/problems/op/OPLib-master/solutions/ea4op/gen1/a280-gen1-50.sol
NAME : a280
TYPE : OP
DIMENSION : 280
COST_LIMIT : 1290
ROUTE_NODES : 143
ROUTE_SCORE : 143
ROUTE_COST : 1288
NODE_SEQUENCE_SECTION
1
280
3
279
4
277
276
275
9
8
10
11
12
13
14
24
23
25
22
26
27
28
29
31
32
33
34
35
36
37
38
39
40
41
42
43
60
61
118
117
115
114
111
110
109
108
104
105
106
173
174
161
175
160
159
158
157
119
120
121
122
123
124
125
126
127
128
21
20
131
132
19
18
133
134
270
269
268
267
137
138
139
148
147
146
145
199
200
144
143
142
141
140
266
265
264
263
262
261
260
259
258
257
256
255
254
253
252
209
210
207
212
211
214
213
216
215
218
219
220
221
222
223
224
225
226
227
228
229
230
251
250
247
245
246
231
238
239
240
241
244
243
2
-1
DEPOT_SECTION
1
-1
EOF
